119479
1,64,73,45,80,62,14,70,26,36,66,20,9,77,58,74,32,40,82,75,35,30,2,38,16,11,33,27,7,51,72,81,47,60,43,57,3,12,23,55,42,25,69,78,15,61,6,79,28,8,83,53,59,68,44,22,5,19,31,24,48,21,71,54,46,13,37,18,65,50,4,63,39,52,41,34,49,56,17,76,67,29,10,1